c ren 1 -> 1
c ren 2 -> 2
c ren 3 -> 3
c ren 4 -> 4
c ren 5 -> 5
c ren 6 -> 6
c ren 7 -> 7
c ren 8 -> 8
c ren 9 -> 9
c ren 10 -> 10
c ren 11 -> 11
c ren 12 -> 12
c ren 13 -> 13
c ren 14 -> 14
c ren 15 -> 15
c ren 16 -> 16
c ren 17 -> 17
c ren 18 -> 18
c ren 20 -> 19
c ren 21 -> 20
c ren 55 -> 21
c ren 56 -> 22
c ren 65 -> 23
c ren 66 -> 24
c ren 73 -> 25
c ren 74 -> 26
p cnf 26 92
a 1 3 4 5 6 7 8 9 10 11 12 13 14 0
d 2 1 3 4 5 6 7 8 0
d 15 3 4 5 6 7 8 0
d 16 9 10 11 12 13 14 0
e 17 18 19 20 21 22 23 24 25 26 0
-13 -17 0
7 -17 0
13 -18 0
-7 -18 0
3 4 5 6 9 10 11 12 -15 16 17 18 19 20 0
-14 -19 0
8 -19 0
14 -20 0
-8 -20 0
3 4 5 6 9 10 11 12 15 -16 17 18 19 20 0
3 4 5 -6 9 10 11 -12 15 -16 17 18 19 20 0
3 4 5 -6 9 10 11 -12 -15 16 17 18 19 20 0
3 4 -5 6 9 10 -11 12 15 -16 17 18 19 20 0
3 4 -5 6 9 10 -11 12 -15 16 17 18 19 20 0
-3 4 -5 -6 -9 10 -11 -12 -15 16 17 18 19 20 0
-3 -4 5 6 -9 -10 11 12 -15 16 17 18 19 20 0
3 4 -5 -6 9 10 -11 -12 -15 16 17 18 19 20 0
-3 -4 5 6 -9 -10 11 12 15 -16 17 18 19 20 0
3 -4 5 6 9 -10 11 12 -15 16 17 18 19 20 0
3 4 -5 -6 9 10 -11 -12 15 -16 17 18 19 20 0
-3 -4 -5 6 -9 -10 -11 12 -15 16 17 18 19 20 0
3 -4 5 -6 9 -10 11 -12 -15 16 17 18 19 20 0
3 -4 5 6 9 -10 11 12 15 -16 17 18 19 20 0
-3 4 5 -6 -9 10 11 -12 15 -16 17 18 19 20 0
-3 4 -5 6 -9 10 -11 12 15 -16 17 18 19 20 0
3 -4 5 -6 9 -10 11 -12 15 -16 17 18 19 20 0
-3 4 -5 -6 -9 10 -11 -12 15 -16 17 18 19 20 0
-3 -4 5 -6 -9 -10 11 -12 15 -16 17 18 19 20 0
3 -4 -5 6 9 -10 -11 12 -15 16 17 18 19 20 0
-3 -4 -5 6 -9 -10 -11 12 15 -16 17 18 19 20 0
3 -4 -5 -6 9 -10 -11 -12 -15 16 17 18 19 20 0
3 -4 -5 6 9 -10 -11 12 15 -16 17 18 19 20 0
-3 4 5 6 -9 10 11 12 -15 16 17 18 19 20 0
3 -4 -5 -6 9 -10 -11 -12 15 -16 17 18 19 20 0
-3 -4 -5 -6 -9 -10 -11 -12 -15 16 17 18 19 20 0
-3 4 5 6 -9 10 11 12 15 -16 17 18 19 20 0
-3 4 -5 6 -9 10 -11 12 -15 16 17 18 19 20 0
-3 4 5 -6 -9 10 11 -12 -15 16 17 18 19 20 0
-3 -4 -5 -6 -9 -10 -11 -12 15 -16 17 18 19 20 0
-3 -4 5 -6 -9 -10 11 -12 -15 16 17 18 19 20 0
1 -3 -4 5 6 -9 -11 12 -15 16 21 22 23 24 26 0
-1 5 6 -9 11 12 -15 16 21 22 23 24 25 26 0
-1 -3 -5 -6 -9 -11 -12 -15 16 21 22 23 24 25 26 0
-3 4 -7 -22 0
1 2 -3 -4 -5 -6 -7 8 -24 0
1 -3 -4 -5 6 -9 11 -12 -15 16 21 22 23 24 26 0
1 -4 -5 -6 -7 -8 -23 0
-3 4 -8 -24 0
3 -23 0
1 -4 -5 -6 -9 11 12 -15 16 21 22 23 24 25 26 0
6 7 -21 0
-1 -3 -7 -22 0
-1 -3 -5 6 -9 -11 12 -15 16 21 22 23 24 25 26 0
-13 -21 0
-3 5 -7 -22 0
-3 4 -5 6 -9 -11 12 -15 16 21 22 23 24 25 26 0
13 -22 0
-3 7 -8 -24 0
-3 6 -7 -22 0
4 8 -23 0
-1 -3 -8 -24 0
4 7 -21 0
-3 4 5 -6 -9 11 -12 -15 16 21 22 23 24 25 26 0
5 7 -21 0
-3 6 -8 -24 0
-2 8 -23 0
1 -3 -4 5 -6 -9 -11 -12 -15 16 21 22 23 24 26 0
-1 7 -21 0
-1 8 -23 0
3 -21 0
7 8 -23 0
-14 -23 0
14 -24 0
1 -4 -5 -6 -7 -21 0
-1 -3 -4 -26 0
1 -3 -4 -25 0
1 4 -26 0
-10 -25 0
-1 4 -25 0
10 -26 0
-3 5 -8 -24 0
-3 4 -5 -6 -9 -11 -12 -15 16 21 22 23 24 25 26 0
-1 -3 5 -6 -9 11 -12 -15 16 21 22 23 24 25 26 0
6 8 -23 0
-3 -4 -5 -6 -7 -8 -15 0
4 5 6 -9 11 12 -15 16 21 22 23 24 25 26 0
3 -9 11 12 -15 16 22 24 25 26 0
-1 3 -25 0
1 3 -26 0
1 -3 -4 -5 -6 7 -22 0
5 8 -23 0
3 4 5 6 7 8 15 0
